c WARNING: for repeatability, setting FPU to use double precision
d VARIABLES            201474       
d CONSTRAINTS          921954       
c ============================[ Problem Statistics ]=============================
c |                                                                             |
c |  Number of variables:        201474                                         |
c |  Number of clauses:          921954                                         |
c |  Parse time:                   0.15 s                                       |
c |                                                                             |
c ============================[ Search Statistics ]==============================
c | Conflicts |          ORIGINAL         |          LEARNT          | Progress |
c |           |    Vars  Clauses Literals |    Limit  Clauses Lit/Cl |          |
c ===============================================================================
c |       100 |  177925   854866  2065126 |   313450      100      9 | 11.688 % |
c |       250 |  177925   854866  2065126 |   344795      250     16 | 11.688 % |
c |       475 |  177925   854866  2065126 |   379275      475     29 | 11.688 % |
c |       812 |  177925   854866  2065126 |   417203      812     85 | 11.688 % |
c |      1318 |  177925   854866  2065126 |   458923     1318    111 | 11.688 % |
c |      2077 |  177925   854866  2065126 |   504815     2077    115 | 11.688 % |
c |      3216 |  177925   854866  2065126 |   555297     3216    105 | 11.688 % |
c |      4924 |  177925   854866  2065126 |   610827     4924     92 | 11.688 % |
c |      7486 |  177925   854866  2065126 |   671909     7486     87 | 11.688 % |
c |     11330 |  177925   854866  2065126 |   739100    11330     91 | 11.688 % |
c |     17096 |  177925   854866  2065126 |   813010    17096     81 | 11.688 % |
c |     25745 |  177925   854866  2065126 |   894311    25745     75 | 11.688 % |
c |     38719 |  177925   854866  2065126 |   983743    38719     70 | 11.688 % |
c |     58180 |  177925   854866  2065126 |  1082117    58180     65 | 11.688 % |
c ===============================================================================
c restarts              : 254
c conflicts             : 85776          (2857 /sec)
c decisions             : 185926         (0.00 % random) (6194 /sec)
c propagations          : 139714459      (4654375 /sec)
c conflict literals     : 5145443        (45.66 % deleted)
d RESTARTS             254
d FAILURES             85776        
d NODES                185926       
d BACKTRACKS           185926       
d PROPAGATIONS         139714459    
d NOGOODSIZE           59.99 
d MEMORY               138.00 
d TIME                 30.0179 

s UNSATISFIABLE
